100 61803

 446 728
210 170
590 764
714 872
302 322
909 567
223 456
734 944
3 603
990 790
518 613
93 155
520 889
428 349
493 451
235 876
620 653
161 173
721 10
752 740
331 265
333 438
50 760
523 247
863 667
668 546
492 499
582 129
681 672
272 601
580 605
867 327
252 753
560 835
696 980
832 404
699 629
90 606
446 675
332 611
139 625
357 359
601 603
274 858
19 718
983 17
311 274
870 685
886 116
978 861
154 980
390 693
260 91
620 82
883 324
797 961
571 114
125 769
354 58
273 154
619 877
811 404
245 628
848 855
450 266
930 315
247 715
520 41
141 105
362 901
8 890
478 193
352 401
996 278
495 354
606 749
833 937
427 733
39 580
593 709
187 256
596 651
600 824
754 947
854 661
93 99
86 588
44 282
137 883
421 403
74 109
548 700
613 199
988 303
512 327
156 154
938 552
255 645
171 405
981 462
